
Gurobi 7.0.1 (win64) logging started 02/08/18 16:01:54

Set parameter TimeLimit to value 3600
Set parameter Threads to value 4

Gurobi Optimizer version 7.0.1 build v7.0.1rc0 (win64)
Copyright (c) 2016, Gurobi Optimization, Inc.

Read LP format model from file waterstop_5_180114_kadou50.lp
Reading time = 0.38 seconds
Objective: 59766 rows, 20988 columns, 321549 nonzeros
Optimize a model with 59766 rows, 20988 columns and 321549 nonzeros
Variable types: 135 continuous, 20853 integer (0 binary)
Coefficient statistics:
  Matrix range     [3e-01, 1e+02]
  Objective range  [1e+00, 1e+00]
  Bounds range     [1e+00, 1e+00]
  RHS range        [1e+00, 1e+02]
Presolve removed 23433 rows and 2319 columns
Presolve time: 1.78s
Presolved: 36333 rows, 18669 columns, 145884 nonzeros
Variable types: 84 continuous, 18585 integer (18585 binary)

Root simplex log...

Iteration    Objective       Primal Inf.    Dual Inf.      Time
    7150    0.0000000e+00   0.000000e+00   0.000000e+00      5s

Root relaxation: objective 0.000000e+00, 7150 iterations, 2.77 seconds
Total elapsed time = 14.91s
Total elapsed time = 18.67s

    Nodes    |    Current Node    |     Objective Bounds      |     Work
 Expl Unexpl |  Obj  Depth IntInf | Incumbent    BestBd   Gap | It/Node Time

     0     0    0.00000    0  411          -    0.00000      -     -   21s
     0     0    0.00000    0  616          -    0.00000      -     -   43s
     0     0    0.00000    0  496          -    0.00000      -     -   47s
H    0     0                     528.4848485    0.00000   100%     -   53s
     0     0    0.00000    0  546  528.48485    0.00000   100%     -   53s
H    0     0                     527.0909091    0.00000   100%     -   67s
     0     0    0.00000    0  500  527.09091    0.00000   100%     -   67s
     0     0    0.00000    0  468  527.09091    0.00000   100%     -   71s
     0     0    0.00000    0  508  527.09091    0.00000   100%     -   72s
     0     0    0.00000    0  414  527.09091    0.00000   100%     -   75s
     0     0    0.00000    0  415  527.09091    0.00000   100%     -   76s
     0     0    0.00000    0  444  527.09091    0.00000   100%     -   79s
     0     0    0.00000    0  382  527.09091    0.00000   100%     -  114s
     0     0    0.00000    0  430  527.09091    0.00000   100%     -  116s
H    0     0                     443.5151515    0.00000   100%     -  152s
     0     0    0.00000    0  367  443.51515    0.00000   100%     -  152s
     0     0    0.00000    0  351  443.51515    0.00000   100%     -  171s
H    0     0                     344.3939394    0.00000   100%     -  211s
     0     0    0.00000    0  298  344.39394    0.00000   100%     -  211s
H    0     0                     321.8787879    0.00000   100%     -  214s
     0     0    0.00000    0  452  321.87879    0.00000   100%     -  216s
H    0     0                     296.7272727    0.00000   100%     -  244s
H    0     0                     235.3636364    0.00000   100%     -  244s
     0     0    0.00000    0  277  235.36364    0.00000   100%     -  244s
     0     0    0.00000    0  275  235.36364    0.00000   100%     -  245s
H    0     0                     209.5757576    0.00000   100%     -  289s
     0     0    0.00000    0  242  209.57576    0.00000   100%     -  289s
     0     0    0.00000    0  236  209.57576    0.00000   100%     -  292s
     0     0    0.39729    0  185  209.57576    0.39729   100%     -  322s
H    0     0                     204.9393939    0.39729   100%     -  324s
     0     0    0.39729    0  262  204.93939    0.39729   100%     -  325s
     0     0    5.00000    0  470  204.93939    5.00000  97.6%     -  328s
H    0     0                     197.3333333    5.00000  97.5%     -  335s
     0     0    5.00000    0  439  197.33333    5.00000  97.5%     -  335s
     0     0    5.00000    0  433  197.33333    5.00000  97.5%     -  336s
     0     0    5.00000    0  475  197.33333    5.00000  97.5%     -  339s
     0     0    5.00000    0  437  197.33333    5.00000  97.5%     -  340s
     0     0    5.00000    0  456  197.33333    5.00000  97.5%     -  342s
     0     0    5.00000    0  408  197.33333    5.00000  97.5%     -  379s
     0     0    5.00000    0  486  197.33333    5.00000  97.5%     -  380s
     0     0    5.00000    0  278  197.33333    5.00000  97.5%     -  433s
     0     0    5.00000    0  345  197.33333    5.00000  97.5%     -  436s
H    0     0                     196.6363636    5.00000  97.5%     -  474s
     0     0    5.00000    0  376  196.63636    5.00000  97.5%     -  474s
     0     0    5.00000    0  376  196.63636    5.00000  97.5%     -  479s
H    0     2                     183.3636364    5.00000  97.3%     -  517s
     0     2    5.00000    0  228  183.36364    5.00000  97.3%     -  517s
     1     4    5.00000    1  256  183.36364    5.00000  97.3% 12450  520s
     7    12    5.00000    3  253  183.36364    5.00000  97.3%  3636  527s
    11    16    5.00000    4  269  183.36364    5.00000  97.3%  2667  531s
    19    19    5.00000    6  206  183.36364    5.00000  97.3%  2229  535s
    28    27    5.00000    9  199  183.36364    5.00000  97.3%  1914  549s
H   31    31                     181.4848485    5.00000  97.2%  1818  549s
    32    33    5.00000   10  196  181.48485    5.00000  97.2%  1835  550s
    44    44    5.00000   14  162  181.48485    5.00000  97.2%  1599  557s
    54    58    5.00000   18  170  181.48485    5.00000  97.2%  1504  561s
    69    68    5.00000   23  153  181.48485    5.00000  97.2%  1385  565s
   107   106    5.00000   29  182  181.48485    5.00000  97.2%  1050  572s
   143   146    5.00000   32  203  181.48485    5.00000  97.2%   904  578s
H  188   171                     176.1818182    5.00000  97.2%   776  578s
   189   191    5.00000   33  213  176.18182    5.00000  97.2%   795  583s
H  221   196                     173.4242424    5.00000  97.1%   727  584s
   256   256   15.13316   34  262  173.42424    5.00000  97.1%   642  591s
   302   302    5.00000   35  187  173.42424    5.00000  97.1%   599  598s
   345   348    5.00000   37  176  173.42424    5.00000  97.1%   588  602s
   408   409    5.07265   39  270  173.42424    5.00000  97.1%   555  608s
   428   428    5.86659   40  339  173.42424    5.00000  97.1%   563  618s
   478   478    6.92395   42  313  173.42424    5.00000  97.1%   537  632s
   521   523    6.92395   45  301  173.42424    5.00000  97.1%   531  642s
   577   577    7.45431   49  379  173.42424    5.00000  97.1%   534  654s
   642   641    7.45431   52  334  173.42424    5.00000  97.1%   529  663s
   718   702    7.54314   57  374  173.42424    5.00000  97.1%   521  698s
H  776   762                     172.5454545    5.00000  97.1%   526  714s
   807   785   14.43904   65  372  172.54545    5.00000  97.1%   539  721s
H  859   823                     171.0606061    5.00000  97.1%   548  721s
   865   840    7.68379   71  409  171.06061    5.00000  97.1%   550  730s
   938   906   36.66541   75  568  171.06061    5.00000  97.1%   561  737s
H 1009   941                     164.5151515    5.00000  97.0%   569  738s
  1010   965    7.68379   77  416  164.51515    5.00000  97.0%   569  744s
  1059  1005   37.12106   20  376  164.51515    5.00000  97.0%   588  755s
  1061  1006   72.04715  172  313  164.51515    5.00000  97.0%   587  806s
  1062  1007    8.39297   57  344  164.51515    5.00000  97.0%   587  954s
  1063  1008   38.96596   65  357  164.51515    5.00000  97.0%   586  961s
  1064  1008   44.61191  133  317  164.51515    5.00000  97.0%   586 1053s
  1065  1009   37.11474   19  374  164.51515    5.00000  97.0%   585 1063s
  1066  1010   38.88302   54  439  164.51515    5.00000  97.0%   584 1201s
  1067  1010   41.45062  114  353  164.51515    5.00000  97.0%   584 1223s
  1068  1011   82.00062  188  380  164.51515    5.00000  97.0%   583 1323s
  1069  1012   22.10520   78  371  164.51515    5.00000  97.0%   583 1327s
  1070  1012  142.26880  203  564  164.51515    5.00000  97.0%   582 1497s
  1071  1013   35.68754   84  451  164.51515    5.00000  97.0%   582 1503s
  1072  1014  143.10536  202  682  164.51515    5.00000  97.0%   581 1608s
  1073  1014   38.00075  120  565  164.51515    5.00000  97.0%   581 1612s
  1074  1015   18.03030   28  553  164.51515    5.00000  97.0%   580 1701s
  1075  1016   18.03030   45  564  164.51515    5.00000  97.0%   580 1705s
  1076  1016   18.03030   64  575  164.51515    5.00000  97.0%   579 1811s
  1077  1017   40.82038  124  545  164.51515    5.00000  97.0%   578 1818s
  1078  1018  134.44126  200  593  164.51515    5.00000  97.0%   578 1913s
  1079  1018   37.12106   20  645  164.51515    5.00000  97.0%   577 1919s
H 1079   966                     164.3333333    5.00000  97.0%   577 2024s
  1080   967  135.16917  187  612  164.33333    5.00000  97.0%   577 2045s
  1081   968   72.04715  172  612  164.33333    5.00000  97.0%   576 2131s
  1082   968    8.39297   57  612  164.33333    5.00000  97.0%   576 2213s
  1083   972    5.00000   13  443  164.33333    5.00000  97.0%  1190 2482s
  1085   975    5.00000   14  399  164.33333    5.00000  97.0%  1191 2534s
  1089   978   15.22552   15  398  164.33333    5.00000  97.0%  1215 2571s
  1093   981    5.00000   15  352  164.33333    5.00000  97.0%  1213 2590s
  1097   983    5.00000   16  432  164.33333    5.00000  97.0%  1215 2607s
  1101   986    5.00000   16  301  164.33333    5.00000  97.0%  1211 2621s
  1105   989    5.00000   17  342  164.33333    5.00000  97.0%  1212 2639s
  1111   989    5.00000   17  279  164.33333    5.00000  97.0%  1209 2647s
  1116   991    5.00000   18  355  164.33333    5.00000  97.0%  1204 2652s
  1123   997    5.00000   18  467  164.33333    5.00000  97.0%  1200 2669s
  1129  1003    5.00000   19  312  164.33333    5.00000  97.0%  1197 2679s
  1138  1005    5.00000   20  271  164.33333    5.00000  97.0%  1191 2685s
  1146  1014    5.00000   21  219  164.33333    5.00000  97.0%  1187 2695s
  1156  1018    5.00000   22  198  164.33333    5.00000  97.0%  1182 2714s
  1170  1028    5.00000   23  212  164.33333    5.00000  97.0%  1178 2736s
  1189  1043    5.00000   25  207  164.33333    5.00000  97.0%  1171 2764s
  1231  1069    5.00000   28  192  164.33333    5.00000  97.0%  1160 2881s
  1284  1109    5.00000   30  179  164.33333    5.00000  97.0%  1236 3019s
  1360  1151    5.00000   32  185  164.33333    5.00000  97.0%  1325 3070s
  1445  1215    5.00000   33  181  164.33333    5.00000  97.0%  1352 3109s
  1570  1293    5.00000   42  169  164.33333    5.00000  97.0%  1331 3142s
  1717  1392    5.00000   50  175  164.33333    5.00000  97.0%  1313 3175s
  1920  1512    5.00000   61  147  164.33333    5.00000  97.0%  1261 3247s
  2137  1637    5.00000   63  166  164.33333    5.00000  97.0%  1226 3275s
H 2397  1683                     163.5757576    5.00000  96.9%  1154 3302s
  2635  1743    5.00000   73  146  163.57576    5.00000  96.9%  1094 3326s
  2889  1800    5.00000   79  156  163.57576    5.00000  96.9%  1034 3358s
  3018  1872    5.00000   84  154  163.57576    5.00000  96.9%  1011 3392s
  3583  2191    5.00000   86  157  163.57576    5.00000  96.9%   895 3420s
H 3601  2155                     162.9696970    5.00000  96.9%   899 3420s
  4116  2590    5.00000   95  188  162.96970    5.00000  96.9%   812 3447s
  4526  2881    5.00000   98  166  162.96970    5.00000  96.9%   768 3472s
H 4849  3142                     160.0909091    5.00000  96.9%   747 3500s
  5382  3581    5.61419  110  286  160.09091    5.00000  96.9%   703 3526s
  5684  3871    9.18272  125  428  160.09091    5.00000  96.9%   691 3569s
  6139  4280    5.95853  131  396  160.09091    5.00000  96.9%   670 3596s
  6550  4660    5.98620  139  288  160.09091    5.00000  96.9%   661 3600s

Cutting planes:
  Gomory: 2
  Implied bound: 75
  MIR: 80
  Flow cover: 19
  Zero half: 18

Explored 6558 nodes (4958649 simplex iterations) in 3600.35 seconds
Thread count was 4 (of 20 available processors)

Solution count 10: 160.091 162.97 163.576 ... 181.485
Pool objective bound 5

Time limit reached
Best objective 1.600909090909e+02, best bound 5.000000000064e+00, gap 96.8768%

Wrote result file 'waterstop_5_180114_kadou50.sol'

